Translating instance to solver...

Set parameter TimeLimit to value 28800
Gurobi Optimizer version 11.0.2 build v11.0.2rc0 (linux64 - "Ubuntu 22.04.4 LTS")

CPU model: Intel(R) Xeon(R) Gold 5120 CPU @ 2.20GHz, instruction set [SSE2|AVX|AVX2|AVX512]
Thread count: 28 physical cores, 56 logical processors, using up to 28 threads

Academic license 2463511 - for non-commercial use only - registered to lu___@cefet-rj.br
Optimize a model with 85165 rows, 41523 columns and 194718 nonzeros
Model fingerprint: 0x5cbfe323
Variable types: 1 continuous, 41522 integer (41460 binary)
Coefficient statistics:
  Matrix range     [1e+00, 1e+05]
  Objective range  [3e-01, 8e-01]
  Bounds range     [1e+00, 6e+01]
  RHS range        [1e+00, 7e+01]
Presolve removed 69243 rows and 34979 columns
Presolve time: 1.36s
Presolved: 15922 rows, 6544 columns, 46489 nonzeros
Variable types: 0 continuous, 6544 integer (6483 binary)

Root relaxation: objective 1.439994e+00, 2333 iterations, 0.11 seconds (0.15 work units)

    Nodes    |    Current Node    |     Objective Bounds      |     Work
 Expl Unexpl |  Obj  Depth IntInf | Incumbent    BestBd   Gap | It/Node Time

     0     0    1.43999    0  134          -    1.43999      -     -    2s
H    0     0                       3.4912370    1.43999  58.8%     -    2s
     0     0    1.64828    0  195    3.49124    1.64828  52.8%     -    2s
H    0     0                       1.8176730    1.64926  9.27%     -    3s
     0     0    1.67356    0  168    1.81767    1.67356  7.93%     -    3s
     0     0    1.67356    0  243    1.81767    1.67356  7.93%     -    4s
     0     0    1.67356    0  126    1.81767    1.67356  7.93%     -    5s
     0     0    1.67356    0  195    1.81767    1.67356  7.93%     -    5s
     0     0    1.67356    0  201    1.81767    1.67356  7.93%     -    6s
     0     0    1.67356    0  445    1.81767    1.67356  7.93%     -    7s
     0     0    1.67356    0  333    1.81767    1.67356  7.93%     -    8s
     0     0    1.67356    0  249    1.81767    1.67356  7.93%     -    8s
     0     0    1.67356    0  277    1.81767    1.67356  7.93%     -    9s
     0     0    1.67356    0  140    1.81767    1.67356  7.93%     -   10s
     0     0    1.67356    0  321    1.81767    1.67356  7.93%     -   10s
     0     0    1.67356    0  148    1.81767    1.67356  7.93%     -   12s
     0     0    1.67356    0  213    1.81767    1.67356  7.93%     -   13s
     0     0    1.67356    0  382    1.81767    1.67356  7.93%     -   15s
     0     0    1.67356    0  382    1.81767    1.67356  7.93%     -   16s
     0     2    1.67356    0  344    1.81767    1.67356  7.93%     -   18s
    23    18    1.67356    5  406    1.81767    1.67356  7.93%  1028   20s
   199    71    1.67356   11  457    1.81767    1.67356  7.93%   478   25s
   360    96    1.67356   15  281    1.81767    1.67356  7.93%   393   30s
   869    92    1.77018   21  425    1.81767    1.67356  7.93%   289   35s
  1770    46     cutoff   16         1.81767    1.70086  6.43%   243   40s

Cutting planes:
  Learned: 370
  Gomory: 2
  Lift-and-project: 1
  Implied bound: 468
  Clique: 1
  MIR: 127
  Zero half: 7
  RLT: 132
  Relax-and-lift: 31
  BQP: 118

Explored 2139 nodes (537333 simplex iterations) in 41.45 seconds (41.50 work units)
Thread count was 28 (of 56 available processors)

Solution count 2: 1.81767 3.49124 

Optimal solution found (tolerance 1.00e-04)
Best objective 1.817673000000e+00, best bound 1.817673000000e+00, gap 0.0000%

Solver Wallclock Time (for this epsilon): 41.45756411552429 s
Python wallclock Time (for this epsilon): 48.4816575050354 s


Total Elapsed Time (since program call): 516.1060945987701 s

Results:

I = 1.817673 mA
C = 70.0 points
C ~= 28.0 km^2

Minimum Epsilon for this instance = 10
Maximum Epsilon for this instance = 100

Current Epsilon = 70


Preprocessing Time (for this epsilon): 0.010261297225952148 s


Updated solution vectors:
sol_I = [-0.9176730000000001,-1.223564,-1.367673,-1.367673,-1.367673,-1.6735639999999998,-1.817673]
sol_C = [15.0,20.0,49.0,47.0,56.0,61.0,70.0]
sol_eps = [10,20,30,40,50,60,70]
sol_gap = [0.0,0.0,0.0,3.0375000092952575e-07,1.912499996148398e-07,0.0,0.0]
